(set-logic ALL)
(declare-const BAV1 Bool)
(declare-const BAV2 Bool)
(declare-const BAV3 Bool)
(declare-const BAV4 Bool)
(declare-const GEN14 Int)
(declare-const GEN13 Int)
(declare-const GEN12 Int)
(declare-const GEN11 Int)
(declare-const GEN10 Int)
(declare-const GEN9 Int)
(declare-const GEN8 Int)
(declare-const GEN7 Int)
(declare-const GEN6 Int)
(declare-const GEN5 Int)
(declare-const GEN4 Int)
(declare-const GEN3 Int)
(declare-const GEN2 Int)
(declare-const GEN1 Int)
(declare-fun v0 () (_ BitVec 4))
(assert (ite (bvule ((_ sign_extend 3) (ite (bvult ((_ sign_extend 15) (_ bv0 1)) (_ bv11134 16)) (_ bv1 1) (_ bv0 1))) v0) (bvslt ((_ zero_extend 15) (ite (= (_ bv11134 16) ((_ sign_extend 12) v0)) (_ bv1 1) (_ bv0 1))) (bvlshr (bvadd (_ bv11134 16) ((_ sign_extend 12) v0)) ((_ sign_extend 12) v0))) (xor (ite (bvsgt (bvlshr (bvadd (_ bv11134 16) ((_ sign_extend 12) v0)) ((_ sign_extend 12) v0)) ((_ zero_extend 12) v0)) (bvugt (ite (bvult ((_ sign_extend 15) (_ bv0 1)) (_ bv11134 16)) (_ bv1 1) (_ bv0 1)) (_ bv0 1)) (bvsgt (bvlshr (bvadd (_ bv11134 16) ((_ sign_extend 12) v0)) ((_ sign_extend 12) v0)) ((_ zero_extend 12) v0))) (xor (bvugt (bvlshr (bvadd (_ bv11134 16) ((_ sign_extend 12) v0)) ((_ sign_extend 12) v0)) (_ bv11134 16)) (= (bvxnor (_ bv11134 16) ((_ zero_extend 12) v0)) (bvadd (_ bv11134 16) ((_ sign_extend 12) v0)))))))
(assert (= BAV1 (= (_ bv11134 16) ((_ sign_extend 12) v0))))
(assert (= BAV2 (xor (ite (bvsgt (bvlshr (bvadd (_ bv11134 16) ((_ sign_extend 12) v0)) ((_ sign_extend 12) v0)) ((_ zero_extend 12) v0)) (bvugt (ite (bvult ((_ sign_extend 15) (_ bv0 1)) (_ bv11134 16)) (_ bv1 1) (_ bv0 1)) (_ bv0 1)) (bvsgt (bvlshr (bvadd (_ bv11134 16) ((_ sign_extend 12) v0)) ((_ sign_extend 12) v0)) ((_ zero_extend 12) v0))) (xor (bvugt (bvlshr (bvadd (_ bv11134 16) ((_ sign_extend 12) v0)) ((_ sign_extend 12) v0)) (_ bv11134 16)) (= (bvxnor (_ bv11134 16) ((_ zero_extend 12) v0)) (bvadd (_ bv11134 16) ((_ sign_extend 12) v0)))))))
(assert (= BAV3 (xor (bvugt (bvlshr (bvadd (_ bv11134 16) ((_ sign_extend 12) v0)) ((_ sign_extend 12) v0)) (_ bv11134 16)) (= (bvxnor (_ bv11134 16) ((_ zero_extend 12) v0)) (bvadd (_ bv11134 16) ((_ sign_extend 12) v0))))))
(assert (= BAV4 (= (bvxnor (_ bv11134 16) ((_ zero_extend 12) v0)) (bvadd (_ bv11134 16) ((_ sign_extend 12) v0)))))
(check-sat)
(get-model)